CMD:
./solvers/bin/cadical --plain --no-reduce -t 1600 ./data/cnfs//oski15a01b04s/oski15a01b04s.96.cnf

c --- [ banner ] -------------------------------------------------------------
c 
c CaDiCaL SAT Solver
c Copyright (c) 2016-2024
c A. Biere, M. Fleury, N. Froleyks, K. Fazekas, F. Pollitt, T. Faller
c JKU Linz, University of Freiburg, TU Wien
c 
c Version 2.1.3 5296d3d2a9bf48c154ab2acb5e44625776d821bf
c g++ (Gentoo 12.3.1_p20230526 p2) 12.3.1 20230526 -Wall -Wextra -O3 -DNDEBUG
c Sat Aug 9 07:26:21 PDT 2025 Linux cedar2.int.cedar.computecanada.ca 5.14.0-362.24.2.el9_3.x86_64 x86_64
c 
c --- [ limit ] --------------------------------------------------------------
c 
c setting time limit to 1600 seconds real time (due to '-t 1600')
c 
c --- [ parsing input ] ------------------------------------------------------
c 
c reading DIMACS file from './data/cnfs//oski15a01b04s/oski15a01b04s.96.cnf'
c opening file to read './data/cnfs//oski15a01b04s/oski15a01b04s.96.cnf'
c found 'p cnf 31219524 89209067' header
c parsed 89209067 clauses in 15.78 seconds process time
c 
c --- [ options ] ------------------------------------------------------------
c 
c   --compact=false                (different from default 'true')
c   --decompose=false              (different from default 'true')
c   --deduplicate=false            (different from default 'true')
c   --elim=false                   (different from default 'true')
c   --probe=false                  (different from default 'true')
c   --reduce=false                 (different from default 'true')
c   --subsume=false                (different from default 'true')
c   --ternary=false                (different from default 'true')
c   --transred=false               (different from default 'true')
c   --vivify=false                 (different from default 'true')
c 
c --- [ solving ] ------------------------------------------------------------
c 
c time measured in process time since initialization
c 
c  seconds     reductions  redundant   irredundant
c           MB     restarts       trail          variables
c             level   conflicts       glue              remaining
c 
c * 15.78 13473  0 0   0    0    0  0% 0 85666273 25735390 82%
c { 17.37 13561  0 0   0    0    0  0% 0 85666273 25735390 82%
c i 17.74 13562  9 0   0   18   17 18% 1 85666273 25735141 82%
c i 17.77 13562  9 0   0   19   17 18% 1 85666273 25735140 82%
c } 17.78 13562  8 0   0   21   17 18% 1 85666273 25735107 82%
c 0 17.78 13562  8 0   0   21   17 18% 1 85666273 25735107 82%
c 
c --- [ result ] -------------------------------------------------------------
c 
s UNSATISFIABLE
c 
c --- [ run-time profiling ] -------------------------------------------------
c 
c process time taken by individual solving procedures
c (percentage relative to process time for solving)
c 
c        15.78  791.59% parse
c         1.99   99.99% search
c         1.59   79.63% lucky
c         0.41   20.36% unstable
c         0.00    0.00% simplify
c   =================================
c         1.99   11.22% solve
c 
c last line shows process time for solving
c (percentage relative to total process time)
c 
c --- [ statistics ] ---------------------------------------------------------
c 
c chronological:                19        90.48 %  of conflicts
c conflicts:                    21        10.53    per second
c decisions:                    87        43.63    per second
c fixed:                   5484417        17.57 %  of all variables
c learned:                      20        95.24 %  per conflict
c learned_lits:                 86       100.00 %  learned literals
c minimized:                     0         0.00 %  learned literals
c shrunken:                     47        54.65 %  learned literals
c minishrunken:                  0         0.00 %  learned literals
c otfs:                          0         0.00 %  of conflict
c propagations:            5809876         2.91 M  per second
c 
c seconds are measured in process time for solving
c 
c --- [ resources ] ----------------------------------------------------------
c 
c total process time since initialization:        17.78    seconds
c total real time since initialization:           17.98    seconds
c maximum resident set size of process:        13620.82    MB
c 
c --- [ shutting down ] ------------------------------------------------------
c 
c exit 20
